p tw 40 256
e 0 3
e 0 5
e 0 8
e 0 11
e 0 16
e 0 17
e 0 18
e 0 25
e 0 26
e 0 30
e 0 31
e 0 32
e 0 33
e 0 35
e 0 38
e 1 3
e 1 6
e 1 8
e 1 11
e 1 12
e 1 13
e 1 15
e 1 16
e 1 22
e 1 24
e 1 27
e 1 30
e 1 31
e 1 34
e 1 37
e 1 39
e 2 7
e 2 15
e 2 19
e 2 22
e 2 24
e 2 26
e 2 31
e 2 34
e 3 5
e 3 7
e 3 8
e 3 10
e 3 14
e 3 15
e 3 16
e 3 21
e 3 23
e 3 24
e 3 27
e 3 33
e 3 38
e 3 39
e 4 6
e 4 8
e 4 10
e 4 11
e 4 12
e 4 16
e 4 21
e 4 28
e 4 34
e 4 39
e 5 9
e 5 14
e 5 19
e 5 20
e 5 22
e 5 23
e 5 27
e 5 31
e 5 37
e 5 39
e 6 8
e 6 9
e 6 10
e 6 11
e 6 20
e 6 21
e 6 23
e 6 26
e 6 27
e 6 29
e 6 30
e 6 33
e 6 34
e 6 35
e 7 13
e 7 15
e 7 21
e 7 22
e 7 27
e 7 30
e 7 32
e 7 35
e 8 12
e 8 15
e 8 22
e 8 24
e 8 26
e 8 27
e 8 29
e 8 30
e 8 31
e 8 32
e 8 39
e 9 12
e 9 15
e 9 19
e 9 21
e 9 27
e 9 28
e 9 31
e 9 38
e 9 39
e 10 13
e 10 14
e 10 15
e 10 18
e 10 19
e 10 27
e 10 36
e 11 13
e 11 19
e 11 20
e 11 23
e 11 25
e 11 26
e 11 27
e 11 28
e 11 33
e 11 34
e 11 35
e 11 37
e 12 17
e 12 21
e 12 23
e 12 26
e 12 29
e 12 33
e 12 34
e 12 35
e 12 39
e 13 14
e 13 16
e 13 18
e 13 19
e 13 27
e 13 29
e 13 30
e 13 31
e 13 37
e 14 16
e 14 26
e 14 30
e 14 34
e 14 38
e 14 39
e 15 17
e 15 21
e 15 26
e 15 33
e 15 34
e 15 35
e 15 36
e 15 37
e 15 39
e 16 19
e 16 21
e 16 25
e 16 28
e 17 19
e 17 23
e 17 27
e 17 33
e 17 34
e 17 36
e 18 19
e 18 20
e 18 28
e 18 38
e 19 22
e 19 27
e 19 28
e 19 32
e 19 35
e 19 37
e 19 38
e 20 21
e 20 22
e 20 24
e 20 27
e 20 29
e 20 37
e 20 38
e 21 22
e 21 25
e 21 26
e 21 28
e 21 35
e 22 23
e 22 24
e 22 28
e 22 33
e 22 35
e 22 36
e 22 38
e 22 39
e 23 25
e 23 26
e 23 27
e 23 30
e 23 31
e 23 33
e 23 39
e 24 26
e 24 28
e 24 34
e 25 27
e 25 28
e 25 30
e 25 31
e 25 32
e 25 33
e 25 35
e 25 39
e 26 28
e 26 34
e 26 36
e 26 37
e 26 38
e 26 39
e 27 29
e 27 31
e 27 35
e 27 37
e 27 38
e 28 35
e 29 30
e 29 31
e 29 32
e 30 31
e 30 35
e 31 35
e 31 37
e 31 38
e 32 33
e 32 34
e 32 38
e 33 37
e 33 38
e 33 39
e 34 35
e 34 38
e 36 39
e 38 39
